DIMENSION: 9
EDGE_WEIGHT_TYPE: EXPLICIT
EDGE_WEIGHT_FORMAT: FULL_MATRIX
EDGE_WEIGHT_SECTION:
32767 3 32767 6 34 61 32767 48 36 
3 32767 61 89 74 63 32767 57 73 
32767 61 32767 32767 73 32767 27 32767 33 
6 89 32767 32767 74 32767 42 31 32767 
34 74 73 74 32767 32767 32767 32767 87 
61 63 32767 32767 32767 32767 69 50 32767 
32767 32767 27 42 32767 69 32767 6 60 
48 57 32767 31 32767 50 6 32767 35 
36 73 33 32767 87 32767 60 35 32767 
EOF